Gurobi Optimizer version 9.1.2 build v9.1.2rc0 (linux64)
Thread count: 36 physical cores, 72 logical processors, using up to 32 threads
Optimize a model with 12 rows, 57 columns and 590 nonzeros
Model fingerprint: 0xf32eec78
Model has 47 quadratic constraints
Coefficient statistics:
  Matrix range     [2e-05, 3e+00]
  QMatrix range    [1e+00, 1e+00]
  QLMatrix range   [1e+00, 1e+00]
  Objective range  [8e-03, 7e-01]
  Bounds range     [1e+00, 1e+00]
  RHS range        [1e+00, 1e+00]
Presolve removed 9 rows and 0 columns

Continuous model is non-convex -- solving as a MIP.

Presolve removed 9 rows and 0 columns
Presolve time: 0.00s
Presolved: 189 rows, 57 columns, 443 nonzeros
Presolved model has 47 bilinear constraint(s)
Variable types: 57 continuous, 0 integer (0 binary)

Root relaxation: objective -1.743721e+00, 44 iterations, 0.00 seconds

    Nodes    |    Current Node    |     Objective Bounds      |     Work
 Expl Unexpl |  Obj  Depth IntInf | Incumbent    BestBd   Gap | It/Node Time

     0     0   -1.74372    0   38          -   -1.74372      -     -    0s
H    0     0                       0.6147548   -1.74372   384%     -    0s
     0     0   -1.64739    0    1    0.61475   -1.64739   368%     -    0s
H    0     0                      -1.6450460   -1.64739  0.14%     -    0s
     0     0     cutoff    0        -1.64505   -1.64505  0.00%     -    0s

Cutting planes:
  RLT: 25
  BQP: 3

Explored 1 nodes (76 simplex iterations) in 0.01 seconds
Thread count was 32 (of 72 available processors)

Solution count 2: -1.64505 0.614755 
No other solutions better than -1.64505

Optimal solution found (tolerance 1.00e-04)
Best objective -1.645045978473e+00, best bound -1.645045978473e+00, gap 0.0000%

User-callback calls 78, time in user-callback 0.00 sec
Gurobi Optimizer version 9.1.2 build v9.1.2rc0 (linux64)
Thread count: 36 physical cores, 72 logical processors, using up to 32 threads
Optimize a model with 24 rows, 120 columns and 2480 nonzeros
Model fingerprint: 0x8f9d618b
Model has 100 quadratic constraints
Coefficient statistics:
  Matrix range     [8e-06, 4e+00]
  QMatrix range    [1e+00, 1e+00]
  QLMatrix range   [1e+00, 1e+00]
  Objective range  [4e-03, 1e+00]
  Bounds range     [1e+00, 1e+00]
  RHS range        [1e+00, 1e+00]
Presolve removed 17 rows and 0 columns

Continuous model is non-convex -- solving as a MIP.

Presolve removed 17 rows and 0 columns
Presolve time: 0.00s
Presolved: 407 rows, 120 columns, 1232 nonzeros
Presolved model has 100 bilinear constraint(s)
Variable types: 120 continuous, 0 integer (0 binary)

Root relaxation: objective -6.917394e+00, 154 iterations, 0.00 seconds

    Nodes    |    Current Node    |     Objective Bounds      |     Work
 Expl Unexpl |  Obj  Depth IntInf | Incumbent    BestBd   Gap | It/Node Time

     0     0   -6.91739    0   93          -   -6.91739      -     -    0s
H    0     0                       1.3871532   -6.91739   599%     -    0s
     0     0   -4.98488    0  100    1.38715   -4.98488   459%     -    0s
H    0     0                      -0.6767078   -4.98488   637%     -    0s
     0     0   -4.98075    0  100   -0.67671   -4.98075   636%     -    0s
     0     0   -4.52117    0  100   -0.67671   -4.52117   568%     -    0s
H    0     0                      -0.9138153   -4.52117   395%     -    0s
     0     0   -4.50229    0  100   -0.91382   -4.50229   393%     -    0s
     0     0   -4.35269    0  100   -0.91382   -4.35269   376%     -    0s
H    0     0                      -0.9837187   -4.35269   342%     -    0s
     0     0   -4.32828    0  100   -0.98372   -4.32828   340%     -    0s
     0     0   -4.27037    0  100   -0.98372   -4.27037   334%     -    0s
H    0     0                      -1.2842554   -4.27037   233%     -    0s
     0     0   -4.26982    0  100   -1.28426   -4.26982   232%     -    0s
     0     0   -4.26205    0  100   -1.28426   -4.26205   232%     -    0s
     0     0   -4.25732    0  100   -1.28426   -4.25732   232%     -    0s
     0     0   -4.25345    0  100   -1.28426   -4.25345   231%     -    0s
H    0     0                      -2.1556701   -4.25345  97.3%     -    0s
H    0     0                      -2.6779483   -4.25345  58.8%     -    0s
H    0     0                      -2.7517960   -4.25345  54.6%     -    0s
H    0     0                      -2.7549142   -4.25345  54.4%     -    0s
     0     2   -4.25345    0  100   -2.75491   -4.25345  54.4%     -    0s
*  760   730              27      -2.7551035   -3.88261  40.9%  30.6    0s
*  762   730              28      -2.7551159   -3.88261  40.9%  30.5    0s
* 1030   902              32      -2.7560039   -3.88261  40.9%  26.5    0s
* 1151  1080              42      -3.0148708   -3.86820  28.3%  25.1    0s
* 1182  1080              22      -3.4975663   -3.86820  10.6%  24.8    0s
* 1301  1067              28      -3.5806253   -3.82446  6.81%  23.7    0s
* 1302  1067              28      -3.5806256   -3.82446  6.81%  23.7    0s
* 1683   992              22      -3.5852030   -3.77235  5.22%  21.5    0s
* 1865  1192              22      -3.5991961   -3.77235  4.81%  20.6    0s
* 1967  1192              29      -3.6139762   -3.77235  4.38%  20.2    0s
* 1990  1192              27      -3.6273645   -3.77235  4.00%  20.0    0s
* 2312  1295              21      -3.6575578   -3.70663  1.34%  18.5    0s
* 2723  1364              28      -3.6607149   -3.70663  1.25%  16.7    0s
* 2725  1364              27      -3.6608330   -3.70663  1.25%  16.7    0s
* 2758  1364              24      -3.6682745   -3.70663  1.05%  16.6    0s
* 2759  1364              24      -3.6682785   -3.70663  1.05%  16.6    0s
* 2760  1364              23      -3.6703680   -3.70663  0.99%  16.6    0s
* 2823  1364              23      -3.6764395   -3.70663  0.82%  16.3    0s
* 3286   975              16      -3.6786284   -3.68077  0.06%  14.7    0s
* 3289   975              18      -3.6786421   -3.68077  0.06%  14.7    0s
* 3290   975              18      -3.6786423   -3.68077  0.06%  14.7    0s
* 3331   975              20      -3.6805856   -3.68077  0.01%  14.6    0s
* 3333   975              19      -3.6806989   -3.68077  0.00%  14.6    0s

Cutting planes:
  RLT: 85
  BQP: 8
  PSD: 12

Explored 3893 nodes (50350 simplex iterations) in 0.79 seconds
Thread count was 32 (of 72 available processors)

Solution count 10: -3.6807 -3.68059 -3.67864 ... -3.66071

Optimal solution found (tolerance 1.00e-04)
Best objective -3.680698927505e+00, best bound -3.680710000182e+00, gap 0.0003%

User-callback calls 8100, time in user-callback 0.00 sec



objective value: -3.6806989275049165
objective bound: -3.6807100001820383
x_opt: [0.0, 1.0, 1.0, 1.0, 1.0, 0.0, 0.08860390318358613, 0.0, 0.5037178974380161, 1.0, 0.0, 0.9999834345677122, 0.8336030748233424, 1.0, 1.0, 0.6342412038457117, 0.0, 0.0, 0.0, 1.0]
GUROBI solution time: 0.7883880138397217




